p edge 100 990
e 1 2
e 1 6
e 1 12
e 1 13
e 1 17
e 1 21
e 1 25
e 1 32
e 1 36
e 1 37
e 1 44
e 1 54
e 1 58
e 1 76
e 1 79
e 1 83
e 2 6
e 2 13
e 2 20
e 2 24
e 2 29
e 2 43
e 2 46
e 2 47
e 2 49
e 2 50
e 2 55
e 2 56
e 2 59
e 2 64
e 2 66
e 2 71
e 2 82
e 2 89
e 2 90
e 2 91
e 3 7
e 3 9
e 3 14
e 3 17
e 3 24
e 3 32
e 3 33
e 3 34
e 3 36
e 3 45
e 3 50
e 3 52
e 3 53
e 3 62
e 3 69
e 3 73
e 3 78
e 3 84
e 3 86
e 3 91
e 3 93
e 3 97
e 3 99
e 4 13
e 4 14
e 4 17
e 4 20
e 4 25
e 4 26
e 4 33
e 4 34
e 4 41
e 4 44
e 4 51
e 4 54
e 4 55
e 4 64
e 4 65
e 4 66
e 4 68
e 4 69
e 4 77
e 4 79
e 4 80
e 4 85
e 4 95
e 4 97
e 4 98
e 4 100
e 5 6
e 5 12
e 5 14
e 5 20
e 5 26
e 5 30
e 5 40
e 5 43
e 5 47
e 5 59
e 5 61
e 5 63
e 5 71
e 5 76
e 5 86
e 5 92
e 5 97
e 6 12
e 6 20
e 6 21
e 6 22
e 6 29
e 6 33
e 6 36
e 6 38
e 6 41
e 6 44
e 6 45
e 6 47
e 6 50
e 6 53
e 6 59
e 6 61
e 6 67
e 6 68
e 6 69
e 6 80
e 7 13
e 7 15
e 7 16
e 7 18
e 7 27
e 7 30
e 7 34
e 7 35
e 7 45
e 7 49
e 7 59
e 7 70
e 7 81
e 7 84
e 7 87
e 8 11
e 8 15
e 8 16
e 8 17
e 8 20
e 8 21
e 8 25
e 8 27
e 8 30
e 8 40
e 8 43
e 8 54
e 8 55
e 8 56
e 8 57
e 8 58
e 8 59
e 8 60
e 8 61
e 8 81
e 8 82
e 8 90
e 8 91
e 8 95
e 8 98
e 9 13
e 9 15
e 9 18
e 9 21
e 9 23
e 9 25
e 9 38
e 9 43
e 9 46
e 9 49
e 9 56
e 9 64
e 9 75
e 9 81
e 9 84
e 9 94
e 10 31
e 10 34
e 10 36
e 10 39
e 10 41
e 10 45
e 10 46
e 10 52
e 10 54
e 10 55
e 10 56
e 10 61
e 10 69
e 10 72
e 10 73
e 10 75
e 10 78
e 10 87
e 10 89
e 10 90
e 10 94
e 10 95
e 11 12
e 11 21
e 11 37
e 11 41
e 11 46
e 11 53
e 11 59
e 11 67
e 11 75
e 11 77
e 11 78
e 11 84
e 11 86
e 11 87
e 11 94
e 11 95
e 12 22
e 12 31
e 12 32
e 12 34
e 12 35
e 12 39
e 12 49
e 12 53
e 12 63
e 12 68
e 12 70
e 12 71
e 12 74
e 12 81
e 12 94
e 13 19
e 13 44
e 13 49
e 13 58
e 13 60
e 13 65
e 13 71
e 13 72
e 13 73
e 13 78
e 13 90
e 13 99
e 14 16
e 14 29
e 14 31
e 14 37
e 14 38
e 14 43
e 14 44
e 14 52
e 14 53
e 14 54
e 14 56
e 14 59
e 14 63
e 14 64
e 14 67
e 14 94
e 14 97
e 15 17
e 15 20
e 15 25
e 15 31
e 15 32
e 15 39
e 15 48
e 15 51
e 15 55
e 15 57
e 15 61
e 15 65
e 15 66
e 15 72
e 15 78
e 15 81
e 15 87
e 16 23
e 16 38
e 16 43
e 16 44
e 16 51
e 16 53
e 16 55
e 16 58
e 16 61
e 16 74
e 16 86
e 16 91
e 16 93
e 16 96
e 16 98
e 16 99
e 17 19
e 17 21
e 17 24
e 17 32
e 17 35
e 17 37
e 17 39
e 17 43
e 17 46
e 17 49
e 17 50
e 17 57
e 17 66
e 17 70
e 17 72
e 17 73
e 17 74
e 17 75
e 17 82
e 17 86
e 17 87
e 18 23
e 18 24
e 18 26
e 18 28
e 18 32
e 18 34
e 18 35
e 18 45
e 18 47
e 18 50
e 18 54
e 18 58
e 18 66
e 18 69
e 18 70
e 18 77
e 18 81
e 18 95
e 19 21
e 19 30
e 19 33
e 19 38
e 19 41
e 19 44
e 19 64
e 19 66
e 19 79
e 19 84
e 19 85
e 19 90
e 19 91
e 19 94
e 19 95
e 19 98
e 20 23
e 20 36
e 20 37
e 20 49
e 20 55
e 20 63
e 20 75
e 20 79
e 20 82
e 20 85
e 20 88
e 20 92
e 21 23
e 21 33
e 21 35
e 21 36
e 21 42
e 21 49
e 21 66
e 21 73
e 21 74
e 21 80
e 21 83
e 21 84
e 21 96
e 21 99
e 22 31
e 22 34
e 22 36
e 22 41
e 22 45
e 22 50
e 22 58
e 22 65
e 22 67
e 22 68
e 22 71
e 22 73
e 22 74
e 22 76
e 22 78
e 22 83
e 22 85
e 22 87
e 22 97
e 22 98
e 23 26
e 23 28
e 23 33
e 23 38
e 23 39
e 23 46
e 23 49
e 23 50
e 23 51
e 23 60
e 23 69
e 23 74
e 23 76
e 23 83
e 23 90
e 23 93
e 23 97
e 24 38
e 24 51
e 24 61
e 24 62
e 24 63
e 24 64
e 24 66
e 24 73
e 24 78
e 24 88
e 24 93
e 24 94
e 24 95
e 24 98
e 25 33
e 25 35
e 25 44
e 25 48
e 25 54
e 25 55
e 25 57
e 25 58
e 25 66
e 25 69
e 25 77
e 25 78
e 25 83
e 25 84
e 25 87
e 25 96
e 25 98
e 25 99
e 26 48
e 26 49
e 26 50
e 26 57
e 26 62
e 26 67
e 26 69
e 26 79
e 26 87
e 26 91
e 26 98
e 26 99
e 26 100
e 27 43
e 27 46
e 27 48
e 27 49
e 27 52
e 27 55
e 27 59
e 27 66
e 27 67
e 27 70
e 27 79
e 27 99
e 28 32
e 28 42
e 28 44
e 28 49
e 28 51
e 28 59
e 28 73
e 28 84
e 28 85
e 28 87
e 28 97
e 28 99
e 29 43
e 29 48
e 29 63
e 29 65
e 29 79
e 29 83
e 29 88
e 29 99
e 30 31
e 30 47
e 30 57
e 30 59
e 30 62
e 30 71
e 30 75
e 30 80
e 31 36
e 31 38
e 31 39
e 31 44
e 31 47
e 31 48
e 31 49
e 31 52
e 31 54
e 31 57
e 31 69
e 31 95
e 32 36
e 32 41
e 32 47
e 32 49
e 32 60
e 32 64
e 32 68
e 32 77
e 32 79
e 32 86
e 32 91
e 32 95
e 32 96
e 33 37
e 33 43
e 33 46
e 33 53
e 33 60
e 33 71
e 33 76
e 33 78
e 33 86
e 33 90
e 33 99
e 34 54
e 34 57
e 34 62
e 34 74
e 34 78
e 34 83
e 34 93
e 34 98
e 35 45
e 35 52
e 35 61
e 35 66
e 35 68
e 35 77
e 35 99
e 36 37
e 36 44
e 36 45
e 36 47
e 36 49
e 36 51
e 36 56
e 36 59
e 36 63
e 36 67
e 36 68
e 36 72
e 36 74
e 36 75
e 36 96
e 37 39
e 37 42
e 37 52
e 37 59
e 37 60
e 37 70
e 37 74
e 37 76
e 37 83
e 37 98
e 37 99
e 38 43
e 38 44
e 38 48
e 38 51
e 38 53
e 38 60
e 38 63
e 38 64
e 38 65
e 38 70
e 38 72
e 38 74
e 38 75
e 38 76
e 38 90
e 38 93
e 38 94
e 38 98
e 39 43
e 39 46
e 39 47
e 39 55
e 39 56
e 39 57
e 39 60
e 39 66
e 39 68
e 39 72
e 39 75
e 39 81
e 39 84
e 39 86
e 39 88
e 39 93
e 39 94
e 39 96
e 40 59
e 40 60
e 40 67
e 40 69
e 40 73
e 40 78
e 40 83
e 40 84
e 40 86
e 40 91
e 40 92
e 40 93
e 40 94
e 40 99
e 41 44
e 41 45
e 41 55
e 41 71
e 41 74
e 41 75
e 41 83
e 41 89
e 41 94
e 41 96
e 42 53
e 42 63
e 42 68
e 42 73
e 42 77
e 42 80
e 42 85
e 42 88
e 43 49
e 43 53
e 43 55
e 43 60
e 43 69
e 43 79
e 43 87
e 43 92
e 43 97
e 44 48
e 44 53
e 44 54
e 44 59
e 44 73
e 44 75
e 44 84
e 44 97
e 44 98
e 45 46
e 45 47
e 45 50
e 45 63
e 45 68
e 45 70
e 45 71
e 45 72
e 45 73
e 45 76
e 45 78
e 45 83
e 45 87
e 45 88
e 45 89
e 46 51
e 46 53
e 46 54
e 46 58
e 46 60
e 46 69
e 46 73
e 46 75
e 46 86
e 46 89
e 46 99
e 47 54
e 47 60
e 47 63
e 47 77
e 47 86
e 47 91
e 48 49
e 48 51
e 48 54
e 48 58
e 48 59
e 48 62
e 48 70
e 48 75
e 48 77
e 48 88
e 48 95
e 48 96
e 48 98
e 49 52
e 49 58
e 49 66
e 49 81
e 49 92
e 50 52
e 50 57
e 50 59
e 50 68
e 50 70
e 50 73
e 50 74
e 50 81
e 50 84
e 50 85
e 50 88
e 50 90
e 50 95
e 50 98
e 50 99
e 50 100
e 51 60
e 51 63
e 51 67
e 51 68
e 51 71
e 51 76
e 51 84
e 51 89
e 51 92
e 51 96
e 51 97
e 51 99
e 52 63
e 52 67
e 52 69
e 52 71
e 52 77
e 52 83
e 52 86
e 52 88
e 52 93
e 52 99
e 53 54
e 53 59
e 53 60
e 53 77
e 53 78
e 53 84
e 53 86
e 53 87
e 53 90
e 54 55
e 54 60
e 54 73
e 54 75
e 54 78
e 54 87
e 54 96
e 54 99
e 54 100
e 55 58
e 55 60
e 55 72
e 55 75
e 55 87
e 55 88
e 55 95
e 56 63
e 56 70
e 56 75
e 56 76
e 56 79
e 56 81
e 56 84
e 56 85
e 56 87
e 56 88
e 56 89
e 56 94
e 56 96
e 57 58
e 57 60
e 57 64
e 57 66
e 57 71
e 57 72
e 57 82
e 57 89
e 57 90
e 57 92
e 57 96
e 57 98
e 58 59
e 58 61
e 58 63
e 58 64
e 58 66
e 58 67
e 58 69
e 58 71
e 58 75
e 58 78
e 58 80
e 58 87
e 58 90
e 58 92
e 58 93
e 58 99
e 59 61
e 59 65
e 59 68
e 59 80
e 59 84
e 59 91
e 59 99
e 60 74
e 60 75
e 60 76
e 60 84
e 60 86
e 60 91
e 61 66
e 61 69
e 61 70
e 61 72
e 61 74
e 61 75
e 61 77
e 61 78
e 61 79
e 61 91
e 61 92
e 61 93
e 62 68
e 62 79
e 62 83
e 62 84
e 62 89
e 62 93
e 63 65
e 63 70
e 63 75
e 63 85
e 63 90
e 63 93
e 64 67
e 64 72
e 64 73
e 64 74
e 64 75
e 64 76
e 64 77
e 64 89
e 64 90
e 64 94
e 64 97
e 64 99
e 65 67
e 65 70
e 65 73
e 65 74
e 65 75
e 65 95
e 66 68
e 66 82
e 66 88
e 66 93
e 67 68
e 67 76
e 67 77
e 67 80
e 67 83
e 67 86
e 67 94
e 68 70
e 68 74
e 68 76
e 68 81
e 68 89
e 68 92
e 68 96
e 68 99
e 69 77
e 69 86
e 69 88
e 69 91
e 69 97
e 69 98
e 70 71
e 70 74
e 70 77
e 70 84
e 70 86
e 70 87
e 70 97
e 71 80
e 71 91
e 71 93
e 71 96
e 72 82
e 72 86
e 72 88
e 73 75
e 73 84
e 73 85
e 73 90
e 73 92
e 73 97
e 73 98
e 74 75
e 74 83
e 74 87
e 74 90
e 74 95
e 74 98
e 75 77
e 75 79
e 75 86
e 75 93
e 75 96
e 76 78
e 76 79
e 76 81
e 76 86
e 76 99
e 77 83
e 77 86
e 77 88
e 77 90
e 77 97
e 78 85
e 78 87
e 79 82
e 79 85
e 79 86
e 79 89
e 79 92
e 79 95
e 79 96
e 80 81
e 80 83
e 80 86
e 80 97
e 80 99
e 81 88
e 81 93
e 82 83
e 82 84
e 82 85
e 82 95
e 82 96
e 82 100
e 83 88
e 83 93
e 83 94
e 83 96
e 83 98
e 84 93
e 84 98
e 85 88
e 85 89
e 86 87
e 86 88
e 86 89
e 86 95
e 87 97
e 88 94
e 88 97
e 89 91
e 89 94
e 89 96
e 90 93
e 90 96
e 91 92
e 91 96
e 92 95
e 92 99
e 93 98
e 94 96
e 94 98
e 94 99
e 95 96
e 96 98
e 96 100
e 97 100
